TCS_Benchmarks/redos_fix/regexlib2_output_distinct_2210_2209_96_0.smt2
(set-logic QF_S)
(declare-const x String)
(assert (str.in.re x (re.inter (re.opt  (re.union (re.range "\u{30}" "\u{39}") (re.union  (str.to.re "\u{2d}") (re.union (re.range "\u{41}" "\u{5a}") (re.range "\u{61}" "\u{7a}")))) )   (re.union (re.range "\u{30}" "\u{39}") (re.union (re.range "\u{41}" "\u{5a}") (re.range "\u{61}" "\u{7a}"))) )))
(check-sat)
(get-model)