TCS_Benchmarks/redos_fix/regexlib2_output_distinct_2210_2209_96_0.txt
[0-9\-A-Za-z]?
[0-9A-Za-z]{1}